p tw 24 36
1 15
1 18
1 23
2 5
2 8
2 15
3 6
3 13
3 14
4 9
4 11
4 16
5 7
5 24
6 10
6 24
7 18
7 21
8 19
8 22
9 17
9 22
10 15
10 22
11 13
11 23
12 13
12 14
12 17
14 16
16 21
17 18
19 20
19 21
20 23
20 24
